Selected objective sense:  MINIMIZE
Selected objective  name:  OBJ
Selected RHS        name:  RHS1
Selected bound      name:  BND1
CPXPARAM_Preprocessing_Presolve                  0
CPXPARAM_LPMethod                                4
CPXPARAM_Threads                                 1
CPXPARAM_SolutionType                            2
CPXPARAM_TimeLimit                               3600
Tried aggregator 0 times.
Reduced presolve eliminated 159 rows and 159 columns.
Reduced LP has 8057 rows, 38825 columns, and 876151 nonzeros.
Presolve time = 0.20 sec. (181.25 ticks)
Parallel mode: none, using 1 thread for barrier
Number of nonzeros in lower triangle of A*A' = 182728
Using Approximate Minimum Degree ordering
Total time for automatic ordering = 0.02 sec. (34.91 ticks)
Summary statistics for Cholesky factor:
  Rows in Factor            = 8057
  Integer space required    = 189957
  Total non-zeros in factor = 191038
  Total FP ops to factor    = 4595404
 Itn      Primal Obj        Dual Obj  Prim Inf Upper Inf  Dual Inf Inf Ratio
   0   2.5028918e+08  -6.9443333e+06  3.44e+08  0.00e+00  1.77e+06  1.00e+00
   1   3.8076072e+07  -1.8865662e+06  4.49e+07  1.68e-11  1.09e+06  5.26e-03
   2   1.1785665e+06  -1.6436850e+06  3.18e+06  1.55e-11  1.50e+04  1.10e+02
   3   8.6270823e+04  -6.7983687e+05  4.31e+05  1.64e-11  5.74e+03  2.83e-01
   4   1.7101423e+04  -1.6898644e+05  5.19e+04  2.00e-11  1.47e+03  4.82e-01
   5   1.2053726e+04  -8.4776700e+02  5.96e+02  1.42e-11  1.05e+02  4.53e+00
   6   1.2021822e+04  -2.9141431e+02  5.65e+02  6.90e-12  9.99e+01  4.74e+00
   7   1.1888720e+04   8.8890117e+03  1.50e+02  7.28e-12  2.43e+01  1.51e+01
   8   1.1764352e+04   1.0987379e+04  5.84e+01  1.82e-11  6.06e+00  5.37e+01
   9   1.1702187e+04   1.1428619e+04  2.09e+01  5.19e-12  2.13e+00  1.50e+02
  10   1.1670819e+04   1.1572758e+04  1.08e+01  6.38e-12  6.58e-01  4.73e+02
  11   1.1656554e+04   1.1592469e+04  7.31e+00  3.12e-11  4.19e-01  7.19e+02
  12   1.1645274e+04   1.1611357e+04  4.38e+00  1.74e-11  1.98e-01  1.45e+03
  13   1.1640715e+04   1.1619659e+04  3.29e+00  3.54e-12  9.29e-02  2.83e+03
  14   1.1637629e+04   1.1622844e+04  2.57e+00  6.49e-12  4.99e-02  4.59e+03
  15   1.1635900e+04   1.1624159e+04  2.17e+00  7.42e-12  3.22e-02  6.29e+03
  16   1.1635440e+04   1.1624729e+04  2.07e+00  1.48e-11  2.47e-02  7.54e+03
  17   1.1635099e+04   1.1624913e+04  1.99e+00  7.96e-12  2.22e-02  8.07e+03
  18   1.1634741e+04   1.1624986e+04  1.90e+00  7.88e-12  2.12e-02  8.30e+03
  19   1.1634230e+04   1.1625081e+04  1.78e+00  1.13e-11  2.00e-02  8.62e+03
  20   1.1633506e+04   1.1625141e+04  1.61e+00  1.10e-11  1.93e-02  8.84e+03
  21   1.1632259e+04   1.1625850e+04  1.31e+00  2.35e-11  1.12e-02  1.26e+04
  22   1.1631701e+04   1.1625888e+04  1.17e+00  9.23e-12  1.08e-02  1.29e+04
  23   1.1631317e+04   1.1626473e+04  1.08e+00  8.44e-12  4.92e-03  2.09e+04
  24   1.1630786e+04   1.1626768e+04  9.50e-01  1.01e-11  1.32e-03  3.23e+04
  25   1.1630330e+04   1.1626835e+04  8.37e-01  7.08e-12  7.70e-04  3.60e+04
  26   1.1629899e+04   1.1626864e+04  7.30e-01  1.10e-11  6.06e-04  3.82e+04
  27   1.1629511e+04   1.1626976e+04  6.31e-01  1.80e-11  2.03e-04  5.03e+04
  28   1.1629473e+04   1.1627014e+04  6.21e-01  1.02e-11  1.19e-04  5.65e+04
  29   1.1629412e+04   1.1627037e+04  6.06e-01  9.97e-12  4.88e-05  6.28e+04
  30   1.1628893e+04   1.1627056e+04  4.70e-01  1.10e-11  3.10e-05  6.75e+04
  31   1.1628776e+04   1.1627080e+04  4.39e-01  1.77e-11  2.01e-05  7.53e+04
  32   1.1628379e+04   1.1627085e+04  3.33e-01  7.30e-12  1.82e-05  7.72e+04
  33   1.1628070e+04   1.1627134e+04  2.48e-01  1.61e-11  8.37e-06  1.06e+05
  34   1.1627888e+04   1.1627151e+04  1.96e-01  2.26e-11  5.94e-06  1.24e+05
  35   1.1627770e+04   1.1627190e+04  1.62e-01  1.37e-11  2.06e-06  1.98e+05
  36   1.1627738e+04   1.1627196e+04  1.53e-01  1.03e-11  1.45e-06  2.22e+05
  37   1.1627717e+04   1.1627199e+04  1.47e-01  2.59e-11  1.16e-06  2.38e+05
  38   1.1627715e+04   1.1627200e+04  1.46e-01  3.38e-11  1.11e-06  2.41e+05
  39   1.1627709e+04   1.1627208e+04  1.44e-01  2.85e-11  5.20e-07  2.86e+05
  40   1.1627533e+04   1.1627213e+04  9.30e-02  2.07e-11  1.41e-07  3.18e+05
  41   1.1627458e+04   1.1627216e+04  6.97e-02  6.81e-12  1.14e-07  3.51e+05
  42   1.1627406e+04   1.1627228e+04  5.34e-02  8.70e-12  4.80e-08  5.51e+05
  43   1.1627397e+04   1.1627229e+04  5.07e-02  1.08e-11  4.11e-08  5.95e+05
  44   1.1627384e+04   1.1627229e+04  4.65e-02  1.15e-11  4.08e-08  5.97e+05
  45   1.1627363e+04   1.1627230e+04  3.99e-02  1.08e-11  3.81e-08  6.20e+05
  46   1.1627360e+04   1.1627231e+04  3.87e-02  1.11e-11  3.45e-08  6.60e+05
  47   1.1627356e+04   1.1627235e+04  3.76e-02  1.04e-11  1.99e-08  8.96e+05
  48   1.1627318e+04   1.1627238e+04  2.52e-02  8.51e-12  7.83e-09  1.21e+06
  49   1.1627308e+04   1.1627240e+04  2.17e-02  9.19e-12  5.19e-09  1.47e+06
  50   1.1627298e+04   1.1627241e+04  1.86e-02  8.79e-12  3.60e-09  1.75e+06
  51   1.1627286e+04   1.1627242e+04  1.42e-02  1.01e-11  2.73e-09  1.98e+06
  52   1.1627284e+04   1.1627242e+04  1.36e-02  7.00e-12  2.57e-09  2.08e+06
  53   1.1627277e+04   1.1627243e+04  1.11e-02  1.19e-11  1.56e-09  2.72e+06
  54   1.1627274e+04   1.1627244e+04  1.02e-02  1.34e-11  7.12e-10  4.06e+06
  55   1.1627264e+04   1.1627245e+04  6.69e-03  9.09e-12  3.42e-10  4.84e+06
  56   1.1627259e+04   1.1627245e+04  4.73e-03  4.93e-12  2.02e-10  7.37e+06
  57   1.1627256e+04   1.1627246e+04  3.69e-03  1.66e-11  8.99e-11  1.13e+07
  58   1.1627250e+04   1.1627246e+04  1.24e-03  1.73e-11  5.57e-11  1.41e+07
  59   1.1627248e+04   1.1627246e+04  6.10e-04  1.01e-11  5.96e-11  2.91e+07
  60   1.1627248e+04   1.1627247e+04  5.16e-04  6.01e-12  3.91e-11  4.42e+07
  61   1.1627247e+04   1.1627247e+04  1.47e-04  5.34e-12  6.21e-11  7.83e+07
  62   1.1627247e+04   1.1627247e+04  5.64e-05  1.29e-11  5.48e-11  4.98e+08
Barrier time = 2.86 sec. (5160.73 ticks)

Total time on 1 threads = 2.86 sec. (5160.73 ticks)
Solve time: 2.855331084
Barrier iterations: 62
